c nIsolatedPIs 0
c maxPI 32
p cnf 99 202
c gate 33 -11 -27 0
-11 -33 0
-27 -33 0
11 27 33 0
c gate 34 11 27 0
11 -34 0
27 -34 0
-11 -27 34 0
c gate 35 -33 -34 0
-33 -35 0
-34 -35 0
33 34 35 0
c gate 36 -10 26 0
-10 -36 0
26 -36 0
10 -26 36 0
c gate 37 -10 -26 0
-10 -37 0
-26 -37 0
10 26 37 0
c gate 38 10 26 0
10 -38 0
26 -38 0
-10 -26 38 0
c gate 39 -37 -38 0
-37 -39 0
-38 -39 0
37 38 39 0
c gate 40 -9 25 0
-9 -40 0
25 -40 0
9 -25 40 0
c gate 41 8 -24 0
8 -41 0
-24 -41 0
-8 24 41 0
c gate 42 9 -25 0
9 -42 0
-25 -42 0
-9 25 42 0
c gate 43 -41 -42 0
-41 -43 0
-42 -43 0
41 42 43 0
c gate 44 8 24 0
8 -44 0
24 -44 0
-8 -24 44 0
c gate 45 -8 -24 0
-8 -45 0
-24 -45 0
8 24 45 0
c gate 46 -44 -45 0
-44 -46 0
-45 -46 0
44 45 46 0
c gate 47 7 -23 0
7 -47 0
-23 -47 0
-7 23 47 0
c gate 48 6 -22 0
6 -48 0
-22 -48 0
-6 22 48 0
c gate 49 -2 18 0
-2 -49 0
18 -49 0
2 -18 49 0
c gate 50 -1 17 0
-1 -50 0
17 -50 0
1 -17 50 0
c gate 51 -49 -50 0
-49 -51 0
-50 -51 0
49 50 51 0
c gate 52 2 -18 0
2 -52 0
-18 -52 0
-2 18 52 0
c gate 53 3 -19 0
3 -53 0
-19 -53 0
-3 19 53 0
c gate 54 -52 -53 0
-52 -54 0
-53 -54 0
52 53 54 0
c gate 55 -51 54 0
-51 -55 0
54 -55 0
51 -54 55 0
c gate 56 -4 20 0
-4 -56 0
20 -56 0
4 -20 56 0
c gate 57 -3 19 0
-3 -57 0
19 -57 0
3 -19 57 0
c gate 58 -56 -57 0
-56 -58 0
-57 -58 0
56 57 58 0
c gate 59 -55 58 0
-55 -59 0
58 -59 0
55 -58 59 0
c gate 60 5 -21 0
5 -60 0
-21 -60 0
-5 21 60 0
c gate 61 4 -20 0
4 -61 0
-20 -61 0
-4 20 61 0
c gate 62 -60 -61 0
-60 -62 0
-61 -62 0
60 61 62 0
c gate 63 -59 62 0
-59 -63 0
62 -63 0
59 -62 63 0
c gate 64 -5 21 0
-5 -64 0
21 -64 0
5 -21 64 0
c gate 65 -6 22 0
-6 -65 0
22 -65 0
6 -22 65 0
c gate 66 -48 -65 0
-48 -66 0
-65 -66 0
48 65 66 0
c gate 67 -64 66 0
-64 -67 0
66 -67 0
64 -66 67 0
c gate 68 -63 67 0
-63 -68 0
67 -68 0
63 -67 68 0
c gate 69 -48 -68 0
-48 -69 0
-68 -69 0
48 68 69 0
c gate 70 -7 23 0
-7 -70 0
23 -70 0
7 -23 70 0
c gate 71 -47 -70 0
-47 -71 0
-70 -71 0
47 70 71 0
c gate 72 -69 71 0
-69 -72 0
71 -72 0
69 -71 72 0
c gate 73 -47 -72 0
-47 -73 0
-72 -73 0
47 72 73 0
c gate 74 -46 -73 0
-46 -74 0
-73 -74 0
46 73 74 0
c gate 75 43 -74 0
43 -75 0
-74 -75 0
-43 74 75 0
c gate 76 -40 -75 0
-40 -76 0
-75 -76 0
40 75 76 0
c gate 77 -39 -76 0
-39 -77 0
-76 -77 0
39 76 77 0
c gate 78 -36 -77 0
-36 -78 0
-77 -78 0
36 77 78 0
c gate 79 -35 -78 0
-35 -79 0
-78 -79 0
35 78 79 0
c gate 80 16 32 0
16 -80 0
32 -80 0
-16 -32 80 0
c gate 81 -16 -32 0
-16 -81 0
-32 -81 0
16 32 81 0
c gate 82 -80 -81 0
-80 -82 0
-81 -82 0
80 81 82 0
c gate 83 -15 -31 0
-15 -83 0
-31 -83 0
15 31 83 0
c gate 84 15 31 0
15 -84 0
31 -84 0
-15 -31 84 0
c gate 85 -83 -84 0
-83 -85 0
-84 -85 0
83 84 85 0
c gate 86 -82 -85 0
-82 -86 0
-85 -86 0
82 85 86 0
c gate 87 -13 -29 0
-13 -87 0
-29 -87 0
13 29 87 0
c gate 88 13 29 0
13 -88 0
29 -88 0
-13 -29 88 0
c gate 89 -87 -88 0
-87 -89 0
-88 -89 0
87 88 89 0
c gate 90 -14 -30 0
-14 -90 0
-30 -90 0
14 30 90 0
c gate 91 14 30 0
14 -91 0
30 -91 0
-14 -30 91 0
c gate 92 -90 -91 0
-90 -92 0
-91 -92 0
90 91 92 0
c gate 93 12 28 0
12 -93 0
28 -93 0
-12 -28 93 0
c gate 94 -12 -28 0
-12 -94 0
-28 -94 0
12 28 94 0
c gate 95 -93 -94 0
-93 -95 0
-94 -95 0
93 94 95 0
c gate 96 -92 -95 0
-92 -96 0
-95 -96 0
92 95 96 0
c gate 97 -89 96 0
-89 -97 0
96 -97 0
89 -96 97 0
c gate 98 86 97 0
86 -98 0
97 -98 0
-86 -97 98 0
c gate 99 79 98 0
79 -99 0
98 -99 0
-79 -98 99 0
c PO
99 0
